Route #1: 35 2 9 37 18 3 21 24 
Route #2: 19 26 13 22 31 15 5 
Route #3: 6 11 33 34 14 17 28 1 
Route #4: 7 20 40 10 23 29 
Route #5: 25 4 38 27 39 
Route #6: 30 32 36 12 16 8 
cost 870.824
execution_time 17.999
